(set-logic ALL)
(declare-const desc String)
(declare-const qualifiers String)
(assert (not (< (str.len desc) 0)))
(assert (not (= (+ 0 (str.indexof desc "\r" 0)) (- 1))))
(assert (not (< (+ 0 (str.indexof desc "\r" 0)) 0)))
(assert (not (< (+ (+ 0 (str.indexof desc "\r" 0)) 1) 0)))
(assert (not (< (str.len desc) 0)))
(assert (not (< (str.len (str.substr desc (+ (+ 0 (str.indexof desc "\r" 0)) 1) (- (str.len desc) (+ (+ 0 (str.indexof desc "\r" 0)) 1)))) 0)))
(assert (not (= (+ 0 (str.indexof (str.substr desc (+ (+ 0 (str.indexof desc "\r" 0)) 1) (- (str.len desc) (+ (+ 0 (str.indexof desc "\r" 0)) 1))) "\r" 0)) (- 1))))
(assert (not (< (+ 0 (str.indexof (str.substr desc (+ (+ 0 (str.indexof desc "\r" 0)) 1) (- (str.len desc) (+ (+ 0 (str.indexof desc "\r" 0)) 1))) "\r" 0)) 0)))
(assert (not (< (+ (+ 0 (str.indexof (str.substr desc (+ (+ 0 (str.indexof desc "\r" 0)) 1) (- (str.len desc) (+ (+ 0 (str.indexof desc "\r" 0)) 1))) "\r" 0)) 1) 0)))
(assert (not (< (str.len (str.substr desc (+ (+ 0 (str.indexof desc "\r" 0)) 1) (- (str.len desc) (+ (+ 0 (str.indexof desc "\r" 0)) 1)))) 0)))
(assert (not (< (str.len (str.substr (str.substr desc (+ (+ 0 (str.indexof desc "\r" 0)) 1) (- (str.len desc) (+ (+ 0 (str.indexof desc "\r" 0)) 1))) (+ (+ 0 (str.indexof (str.substr desc (+ (+ 0 (str.indexof desc "\r" 0)) 1) (- (str.len desc) (+ (+ 0 (str.indexof desc "\r" 0)) 1))) "\r" 0)) 1) (- (str.len (str.substr desc (+ (+ 0 (str.indexof desc "\r" 0)) 1) (- (str.len desc) (+ (+ 0 (str.indexof desc "\r" 0)) 1)))) (+ (+ 0 (str.indexof (str.substr desc (+ (+ 0 (str.indexof desc "\r" 0)) 1) (- (str.len desc) (+ (+ 0 (str.indexof desc "\r" 0)) 1))) "\r" 0)) 1)))) 0)))
(assert (not (= (+ 0 (str.indexof (str.substr (str.substr desc (+ (+ 0 (str.indexof desc "\r" 0)) 1) (- (str.len desc) (+ (+ 0 (str.indexof desc "\r" 0)) 1))) (+ (+ 0 (str.indexof (str.substr desc (+ (+ 0 (str.indexof desc "\r" 0)) 1) (- (str.len desc) (+ (+ 0 (str.indexof desc "\r" 0)) 1))) "\r" 0)) 1) (- (str.len (str.substr desc (+ (+ 0 (str.indexof desc "\r" 0)) 1) (- (str.len desc) (+ (+ 0 (str.indexof desc "\r" 0)) 1)))) (+ (+ 0 (str.indexof (str.substr desc (+ (+ 0 (str.indexof desc "\r" 0)) 1) (- (str.len desc) (+ (+ 0 (str.indexof desc "\r" 0)) 1))) "\r" 0)) 1))) "\r" 0)) (- 1))))
(assert (not (< (+ 0 (str.indexof (str.substr (str.substr desc (+ (+ 0 (str.indexof desc "\r" 0)) 1) (- (str.len desc) (+ (+ 0 (str.indexof desc "\r" 0)) 1))) (+ (+ 0 (str.indexof (str.substr desc (+ (+ 0 (str.indexof desc "\r" 0)) 1) (- (str.len desc) (+ (+ 0 (str.indexof desc "\r" 0)) 1))) "\r" 0)) 1) (- (str.len (str.substr desc (+ (+ 0 (str.indexof desc "\r" 0)) 1) (- (str.len desc) (+ (+ 0 (str.indexof desc "\r" 0)) 1)))) (+ (+ 0 (str.indexof (str.substr desc (+ (+ 0 (str.indexof desc "\r" 0)) 1) (- (str.len desc) (+ (+ 0 (str.indexof desc "\r" 0)) 1))) "\r" 0)) 1))) "\r" 0)) 0)))
(assert (not (< (+ (+ 0 (str.indexof (str.substr (str.substr desc (+ (+ 0 (str.indexof desc "\r" 0)) 1) (- (str.len desc) (+ (+ 0 (str.indexof desc "\r" 0)) 1))) (+ (+ 0 (str.indexof (str.substr desc (+ (+ 0 (str.indexof desc "\r" 0)) 1) (- (str.len desc) (+ (+ 0 (str.indexof desc "\r" 0)) 1))) "\r" 0)) 1) (- (str.len (str.substr desc (+ (+ 0 (str.indexof desc "\r" 0)) 1) (- (str.len desc) (+ (+ 0 (str.indexof desc "\r" 0)) 1)))) (+ (+ 0 (str.indexof (str.substr desc (+ (+ 0 (str.indexof desc "\r" 0)) 1) (- (str.len desc) (+ (+ 0 (str.indexof desc "\r" 0)) 1))) "\r" 0)) 1))) "\r" 0)) 1) 0)))
(assert (not (< (str.len (str.substr (str.substr desc (+ (+ 0 (str.indexof desc "\r" 0)) 1) (- (str.len desc) (+ (+ 0 (str.indexof desc "\r" 0)) 1))) (+ (+ 0 (str.indexof (str.substr desc (+ (+ 0 (str.indexof desc "\r" 0)) 1) (- (str.len desc) (+ (+ 0 (str.indexof desc "\r" 0)) 1))) "\r" 0)) 1) (- (str.len (str.substr desc (+ (+ 0 (str.indexof desc "\r" 0)) 1) (- (str.len desc) (+ (+ 0 (str.indexof desc "\r" 0)) 1)))) (+ (+ 0 (str.indexof (str.substr desc (+ (+ 0 (str.indexof desc "\r" 0)) 1) (- (str.len desc) (+ (+ 0 (str.indexof desc "\r" 0)) 1))) "\r" 0)) 1)))) 0)))
(assert (not (< (str.len (str.substr (str.substr (str.substr desc (+ (+ 0 (str.indexof desc "\r" 0)) 1) (- (str.len desc) (+ (+ 0 (str.indexof desc "\r" 0)) 1))) (+ (+ 0 (str.indexof (str.substr desc (+ (+ 0 (str.indexof desc "\r" 0)) 1) (- (str.len desc) (+ (+ 0 (str.indexof desc "\r" 0)) 1))) "\r" 0)) 1) (- (str.len (str.substr desc (+ (+ 0 (str.indexof desc "\r" 0)) 1) (- (str.len desc) (+ (+ 0 (str.indexof desc "\r" 0)) 1)))) (+ (+ 0 (str.indexof (str.substr desc (+ (+ 0 (str.indexof desc "\r" 0)) 1) (- (str.len desc) (+ (+ 0 (str.indexof desc "\r" 0)) 1))) "\r" 0)) 1))) (+ (+ 0 (str.indexof (str.substr (str.substr desc (+ (+ 0 (str.indexof desc "\r" 0)) 1) (- (str.len desc) (+ (+ 0 (str.indexof desc "\r" 0)) 1))) (+ (+ 0 (str.indexof (str.substr desc (+ (+ 0 (str.indexof desc "\r" 0)) 1) (- (str.len desc) (+ (+ 0 (str.indexof desc "\r" 0)) 1))) "\r" 0)) 1) (- (str.len (str.substr desc (+ (+ 0 (str.indexof desc "\r" 0)) 1) (- (str.len desc) (+ (+ 0 (str.indexof desc "\r" 0)) 1)))) (+ (+ 0 (str.indexof (str.substr desc (+ (+ 0 (str.indexof desc "\r" 0)) 1) (- (str.len desc) (+ (+ 0 (str.indexof desc "\r" 0)) 1))) "\r" 0)) 1))) "\r" 0)) 1) (- (str.len (str.substr (str.substr desc (+ (+ 0 (str.indexof desc "\r" 0)) 1) (- (str.len desc) (+ (+ 0 (str.indexof desc "\r" 0)) 1))) (+ (+ 0 (str.indexof (str.substr desc (+ (+ 0 (str.indexof desc "\r" 0)) 1) (- (str.len desc) (+ (+ 0 (str.indexof desc "\r" 0)) 1))) "\r" 0)) 1) (- (str.len (str.substr desc (+ (+ 0 (str.indexof desc "\r" 0)) 1) (- (str.len desc) (+ (+ 0 (str.indexof desc "\r" 0)) 1)))) (+ (+ 0 (str.indexof (str.substr desc (+ (+ 0 (str.indexof desc "\r" 0)) 1) (- (str.len desc) (+ (+ 0 (str.indexof desc "\r" 0)) 1))) "\r" 0)) 1)))) (+ (+ 0 (str.indexof (str.substr (str.substr desc (+ (+ 0 (str.indexof desc "\r" 0)) 1) (- (str.len desc) (+ (+ 0 (str.indexof desc "\r" 0)) 1))) (+ (+ 0 (str.indexof (str.substr desc (+ (+ 0 (str.indexof desc "\r" 0)) 1) (- (str.len desc) (+ (+ 0 (str.indexof desc "\r" 0)) 1))) "\r" 0)) 1) (- (str.len (str.substr desc (+ (+ 0 (str.indexof desc "\r" 0)) 1) (- (str.len desc) (+ (+ 0 (str.indexof desc "\r" 0)) 1)))) (+ (+ 0 (str.indexof (str.substr desc (+ (+ 0 (str.indexof desc "\r" 0)) 1) (- (str.len desc) (+ (+ 0 (str.indexof desc "\r" 0)) 1))) "\r" 0)) 1))) "\r" 0)) 1)))) 0)))
(assert (not (= (+ 0 (str.indexof (str.substr (str.substr (str.substr desc (+ (+ 0 (str.indexof desc "\r" 0)) 1) (- (str.len desc) (+ (+ 0 (str.indexof desc "\r" 0)) 1))) (+ (+ 0 (str.indexof (str.substr desc (+ (+ 0 (str.indexof desc "\r" 0)) 1) (- (str.len desc) (+ (+ 0 (str.indexof desc "\r" 0)) 1))) "\r" 0)) 1) (- (str.len (str.substr desc (+ (+ 0 (str.indexof desc "\r" 0)) 1) (- (str.len desc) (+ (+ 0 (str.indexof desc "\r" 0)) 1)))) (+ (+ 0 (str.indexof (str.substr desc (+ (+ 0 (str.indexof desc "\r" 0)) 1) (- (str.len desc) (+ (+ 0 (str.indexof desc "\r" 0)) 1))) "\r" 0)) 1))) (+ (+ 0 (str.indexof (str.substr (str.substr desc (+ (+ 0 (str.indexof desc "\r" 0)) 1) (- (str.len desc) (+ (+ 0 (str.indexof desc "\r" 0)) 1))) (+ (+ 0 (str.indexof (str.substr desc (+ (+ 0 (str.indexof desc "\r" 0)) 1) (- (str.len desc) (+ (+ 0 (str.indexof desc "\r" 0)) 1))) "\r" 0)) 1) (- (str.len (str.substr desc (+ (+ 0 (str.indexof desc "\r" 0)) 1) (- (str.len desc) (+ (+ 0 (str.indexof desc "\r" 0)) 1)))) (+ (+ 0 (str.indexof (str.substr desc (+ (+ 0 (str.indexof desc "\r" 0)) 1) (- (str.len desc) (+ (+ 0 (str.indexof desc "\r" 0)) 1))) "\r" 0)) 1))) "\r" 0)) 1) (- (str.len (str.substr (str.substr desc (+ (+ 0 (str.indexof desc "\r" 0)) 1) (- (str.len desc) (+ (+ 0 (str.indexof desc "\r" 0)) 1))) (+ (+ 0 (str.indexof (str.substr desc (+ (+ 0 (str.indexof desc "\r" 0)) 1) (- (str.len desc) (+ (+ 0 (str.indexof desc "\r" 0)) 1))) "\r" 0)) 1) (- (str.len (str.substr desc (+ (+ 0 (str.indexof desc "\r" 0)) 1) (- (str.len desc) (+ (+ 0 (str.indexof desc "\r" 0)) 1)))) (+ (+ 0 (str.indexof (str.substr desc (+ (+ 0 (str.indexof desc "\r" 0)) 1) (- (str.len desc) (+ (+ 0 (str.indexof desc "\r" 0)) 1))) "\r" 0)) 1)))) (+ (+ 0 (str.indexof (str.substr (str.substr desc (+ (+ 0 (str.indexof desc "\r" 0)) 1) (- (str.len desc) (+ (+ 0 (str.indexof desc "\r" 0)) 1))) (+ (+ 0 (str.indexof (str.substr desc (+ (+ 0 (str.indexof desc "\r" 0)) 1) (- (str.len desc) (+ (+ 0 (str.indexof desc "\r" 0)) 1))) "\r" 0)) 1) (- (str.len (str.substr desc (+ (+ 0 (str.indexof desc "\r" 0)) 1) (- (str.len desc) (+ (+ 0 (str.indexof desc "\r" 0)) 1)))) (+ (+ 0 (str.indexof (str.substr desc (+ (+ 0 (str.indexof desc "\r" 0)) 1) (- (str.len desc) (+ (+ 0 (str.indexof desc "\r" 0)) 1))) "\r" 0)) 1))) "\r" 0)) 1))) "\r" 0)) (- 1))))
(assert (not (< (+ 0 (str.indexof (str.substr (str.substr (str.substr desc (+ (+ 0 (str.indexof desc "\r" 0)) 1) (- (str.len desc) (+ (+ 0 (str.indexof desc "\r" 0)) 1))) (+ (+ 0 (str.indexof (str.substr desc (+ (+ 0 (str.indexof desc "\r" 0)) 1) (- (str.len desc) (+ (+ 0 (str.indexof desc "\r" 0)) 1))) "\r" 0)) 1) (- (str.len (str.substr desc (+ (+ 0 (str.indexof desc "\r" 0)) 1) (- (str.len desc) (+ (+ 0 (str.indexof desc "\r" 0)) 1)))) (+ (+ 0 (str.indexof (str.substr desc (+ (+ 0 (str.indexof desc "\r" 0)) 1) (- (str.len desc) (+ (+ 0 (str.indexof desc "\r" 0)) 1))) "\r" 0)) 1))) (+ (+ 0 (str.indexof (str.substr (str.substr desc (+ (+ 0 (str.indexof desc "\r" 0)) 1) (- (str.len desc) (+ (+ 0 (str.indexof desc "\r" 0)) 1))) (+ (+ 0 (str.indexof (str.substr desc (+ (+ 0 (str.indexof desc "\r" 0)) 1) (- (str.len desc) (+ (+ 0 (str.indexof desc "\r" 0)) 1))) "\r" 0)) 1) (- (str.len (str.substr desc (+ (+ 0 (str.indexof desc "\r" 0)) 1) (- (str.len desc) (+ (+ 0 (str.indexof desc "\r" 0)) 1)))) (+ (+ 0 (str.indexof (str.substr desc (+ (+ 0 (str.indexof desc "\r" 0)) 1) (- (str.len desc) (+ (+ 0 (str.indexof desc "\r" 0)) 1))) "\r" 0)) 1))) "\r" 0)) 1) (- (str.len (str.substr (str.substr desc (+ (+ 0 (str.indexof desc "\r" 0)) 1) (- (str.len desc) (+ (+ 0 (str.indexof desc "\r" 0)) 1))) (+ (+ 0 (str.indexof (str.substr desc (+ (+ 0 (str.indexof desc "\r" 0)) 1) (- (str.len desc) (+ (+ 0 (str.indexof desc "\r" 0)) 1))) "\r" 0)) 1) (- (str.len (str.substr desc (+ (+ 0 (str.indexof desc "\r" 0)) 1) (- (str.len desc) (+ (+ 0 (str.indexof desc "\r" 0)) 1)))) (+ (+ 0 (str.indexof (str.substr desc (+ (+ 0 (str.indexof desc "\r" 0)) 1) (- (str.len desc) (+ (+ 0 (str.indexof desc "\r" 0)) 1))) "\r" 0)) 1)))) (+ (+ 0 (str.indexof (str.substr (str.substr desc (+ (+ 0 (str.indexof desc "\r" 0)) 1) (- (str.len desc) (+ (+ 0 (str.indexof desc "\r" 0)) 1))) (+ (+ 0 (str.indexof (str.substr desc (+ (+ 0 (str.indexof desc "\r" 0)) 1) (- (str.len desc) (+ (+ 0 (str.indexof desc "\r" 0)) 1))) "\r" 0)) 1) (- (str.len (str.substr desc (+ (+ 0 (str.indexof desc "\r" 0)) 1) (- (str.len desc) (+ (+ 0 (str.indexof desc "\r" 0)) 1)))) (+ (+ 0 (str.indexof (str.substr desc (+ (+ 0 (str.indexof desc "\r" 0)) 1) (- (str.len desc) (+ (+ 0 (str.indexof desc "\r" 0)) 1))) "\r" 0)) 1))) "\r" 0)) 1))) "\r" 0)) 0)))
(assert (not (< (+ (+ 0 (str.indexof (str.substr (str.substr (str.substr desc (+ (+ 0 (str.indexof desc "\r" 0)) 1) (- (str.len desc) (+ (+ 0 (str.indexof desc "\r" 0)) 1))) (+ (+ 0 (str.indexof (str.substr desc (+ (+ 0 (str.indexof desc "\r" 0)) 1) (- (str.len desc) (+ (+ 0 (str.indexof desc "\r" 0)) 1))) "\r" 0)) 1) (- (str.len (str.substr desc (+ (+ 0 (str.indexof desc "\r" 0)) 1) (- (str.len desc) (+ (+ 0 (str.indexof desc "\r" 0)) 1)))) (+ (+ 0 (str.indexof (str.substr desc (+ (+ 0 (str.indexof desc "\r" 0)) 1) (- (str.len desc) (+ (+ 0 (str.indexof desc "\r" 0)) 1))) "\r" 0)) 1))) (+ (+ 0 (str.indexof (str.substr (str.substr desc (+ (+ 0 (str.indexof desc "\r" 0)) 1) (- (str.len desc) (+ (+ 0 (str.indexof desc "\r" 0)) 1))) (+ (+ 0 (str.indexof (str.substr desc (+ (+ 0 (str.indexof desc "\r" 0)) 1) (- (str.len desc) (+ (+ 0 (str.indexof desc "\r" 0)) 1))) "\r" 0)) 1) (- (str.len (str.substr desc (+ (+ 0 (str.indexof desc "\r" 0)) 1) (- (str.len desc) (+ (+ 0 (str.indexof desc "\r" 0)) 1)))) (+ (+ 0 (str.indexof (str.substr desc (+ (+ 0 (str.indexof desc "\r" 0)) 1) (- (str.len desc) (+ (+ 0 (str.indexof desc "\r" 0)) 1))) "\r" 0)) 1))) "\r" 0)) 1) (- (str.len (str.substr (str.substr desc (+ (+ 0 (str.indexof desc "\r" 0)) 1) (- (str.len desc) (+ (+ 0 (str.indexof desc "\r" 0)) 1))) (+ (+ 0 (str.indexof (str.substr desc (+ (+ 0 (str.indexof desc "\r" 0)) 1) (- (str.len desc) (+ (+ 0 (str.indexof desc "\r" 0)) 1))) "\r" 0)) 1) (- (str.len (str.substr desc (+ (+ 0 (str.indexof desc "\r" 0)) 1) (- (str.len desc) (+ (+ 0 (str.indexof desc "\r" 0)) 1)))) (+ (+ 0 (str.indexof (str.substr desc (+ (+ 0 (str.indexof desc "\r" 0)) 1) (- (str.len desc) (+ (+ 0 (str.indexof desc "\r" 0)) 1))) "\r" 0)) 1)))) (+ (+ 0 (str.indexof (str.substr (str.substr desc (+ (+ 0 (str.indexof desc "\r" 0)) 1) (- (str.len desc) (+ (+ 0 (str.indexof desc "\r" 0)) 1))) (+ (+ 0 (str.indexof (str.substr desc (+ (+ 0 (str.indexof desc "\r" 0)) 1) (- (str.len desc) (+ (+ 0 (str.indexof desc "\r" 0)) 1))) "\r" 0)) 1) (- (str.len (str.substr desc (+ (+ 0 (str.indexof desc "\r" 0)) 1) (- (str.len desc) (+ (+ 0 (str.indexof desc "\r" 0)) 1)))) (+ (+ 0 (str.indexof (str.substr desc (+ (+ 0 (str.indexof desc "\r" 0)) 1) (- (str.len desc) (+ (+ 0 (str.indexof desc "\r" 0)) 1))) "\r" 0)) 1))) "\r" 0)) 1))) "\r" 0)) 1) 0)))
(assert (not (< (str.len (str.substr (str.substr (str.substr desc (+ (+ 0 (str.indexof desc "\r" 0)) 1) (- (str.len desc) (+ (+ 0 (str.indexof desc "\r" 0)) 1))) (+ (+ 0 (str.indexof (str.substr desc (+ (+ 0 (str.indexof desc "\r" 0)) 1) (- (str.len desc) (+ (+ 0 (str.indexof desc "\r" 0)) 1))) "\r" 0)) 1) (- (str.len (str.substr desc (+ (+ 0 (str.indexof desc "\r" 0)) 1) (- (str.len desc) (+ (+ 0 (str.indexof desc "\r" 0)) 1)))) (+ (+ 0 (str.indexof (str.substr desc (+ (+ 0 (str.indexof desc "\r" 0)) 1) (- (str.len desc) (+ (+ 0 (str.indexof desc "\r" 0)) 1))) "\r" 0)) 1))) (+ (+ 0 (str.indexof (str.substr (str.substr desc (+ (+ 0 (str.indexof desc "\r" 0)) 1) (- (str.len desc) (+ (+ 0 (str.indexof desc "\r" 0)) 1))) (+ (+ 0 (str.indexof (str.substr desc (+ (+ 0 (str.indexof desc "\r" 0)) 1) (- (str.len desc) (+ (+ 0 (str.indexof desc "\r" 0)) 1))) "\r" 0)) 1) (- (str.len (str.substr desc (+ (+ 0 (str.indexof desc "\r" 0)) 1) (- (str.len desc) (+ (+ 0 (str.indexof desc "\r" 0)) 1)))) (+ (+ 0 (str.indexof (str.substr desc (+ (+ 0 (str.indexof desc "\r" 0)) 1) (- (str.len desc) (+ (+ 0 (str.indexof desc "\r" 0)) 1))) "\r" 0)) 1))) "\r" 0)) 1) (- (str.len (str.substr (str.substr desc (+ (+ 0 (str.indexof desc "\r" 0)) 1) (- (str.len desc) (+ (+ 0 (str.indexof desc "\r" 0)) 1))) (+ (+ 0 (str.indexof (str.substr desc (+ (+ 0 (str.indexof desc "\r" 0)) 1) (- (str.len desc) (+ (+ 0 (str.indexof desc "\r" 0)) 1))) "\r" 0)) 1) (- (str.len (str.substr desc (+ (+ 0 (str.indexof desc "\r" 0)) 1) (- (str.len desc) (+ (+ 0 (str.indexof desc "\r" 0)) 1)))) (+ (+ 0 (str.indexof (str.substr desc (+ (+ 0 (str.indexof desc "\r" 0)) 1) (- (str.len desc) (+ (+ 0 (str.indexof desc "\r" 0)) 1))) "\r" 0)) 1)))) (+ (+ 0 (str.indexof (str.substr (str.substr desc (+ (+ 0 (str.indexof desc "\r" 0)) 1) (- (str.len desc) (+ (+ 0 (str.indexof desc "\r" 0)) 1))) (+ (+ 0 (str.indexof (str.substr desc (+ (+ 0 (str.indexof desc "\r" 0)) 1) (- (str.len desc) (+ (+ 0 (str.indexof desc "\r" 0)) 1))) "\r" 0)) 1) (- (str.len (str.substr desc (+ (+ 0 (str.indexof desc "\r" 0)) 1) (- (str.len desc) (+ (+ 0 (str.indexof desc "\r" 0)) 1)))) (+ (+ 0 (str.indexof (str.substr desc (+ (+ 0 (str.indexof desc "\r" 0)) 1) (- (str.len desc) (+ (+ 0 (str.indexof desc "\r" 0)) 1))) "\r" 0)) 1))) "\r" 0)) 1)))) 0)))
(assert (not (< (str.len (str.substr (str.substr (str.substr (str.substr desc (+ (+ 0 (str.indexof desc "\r" 0)) 1) (- (str.len desc) (+ (+ 0 (str.indexof desc "\r" 0)) 1))) (+ (+ 0 (str.indexof (str.substr desc (+ (+ 0 (str.indexof desc "\r" 0)) 1) (- (str.len desc) (+ (+ 0 (str.indexof desc "\r" 0)) 1))) "\r" 0)) 1) (- (str.len (str.substr desc (+ (+ 0 (str.indexof desc "\r" 0)) 1) (- (str.len desc) (+ (+ 0 (str.indexof desc "\r" 0)) 1)))) (+ (+ 0 (str.indexof (str.substr desc (+ (+ 0 (str.indexof desc "\r" 0)) 1) (- (str.len desc) (+ (+ 0 (str.indexof desc "\r" 0)) 1))) "\r" 0)) 1))) (+ (+ 0 (str.indexof (str.substr (str.substr desc (+ (+ 0 (str.indexof desc "\r" 0)) 1) (- (str.len desc) (+ (+ 0 (str.indexof desc "\r" 0)) 1))) (+ (+ 0 (str.indexof (str.substr desc (+ (+ 0 (str.indexof desc "\r" 0)) 1) (- (str.len desc) (+ (+ 0 (str.indexof desc "\r" 0)) 1))) "\r" 0)) 1) (- (str.len (str.substr desc (+ (+ 0 (str.indexof desc "\r" 0)) 1) (- (str.len desc) (+ (+ 0 (str.indexof desc "\r" 0)) 1)))) (+ (+ 0 (str.indexof (str.substr desc (+ (+ 0 (str.indexof desc "\r" 0)) 1) (- (str.len desc) (+ (+ 0 (str.indexof desc "\r" 0)) 1))) "\r" 0)) 1))) "\r" 0)) 1) (- (str.len (str.substr (str.substr desc (+ (+ 0 (str.indexof desc "\r" 0)) 1) (- (str.len desc) (+ (+ 0 (str.indexof desc "\r" 0)) 1))) (+ (+ 0 (str.indexof (str.substr desc (+ (+ 0 (str.indexof desc "\r" 0)) 1) (- (str.len desc) (+ (+ 0 (str.indexof desc "\r" 0)) 1))) "\r" 0)) 1) (- (str.len (str.substr desc (+ (+ 0 (str.indexof desc "\r" 0)) 1) (- (str.len desc) (+ (+ 0 (str.indexof desc "\r" 0)) 1)))) (+ (+ 0 (str.indexof (str.substr desc (+ (+ 0 (str.indexof desc "\r" 0)) 1) (- (str.len desc) (+ (+ 0 (str.indexof desc "\r" 0)) 1))) "\r" 0)) 1)))) (+ (+ 0 (str.indexof (str.substr (str.substr desc (+ (+ 0 (str.indexof desc "\r" 0)) 1) (- (str.len desc) (+ (+ 0 (str.indexof desc "\r" 0)) 1))) (+ (+ 0 (str.indexof (str.substr desc (+ (+ 0 (str.indexof desc "\r" 0)) 1) (- (str.len desc) (+ (+ 0 (str.indexof desc "\r" 0)) 1))) "\r" 0)) 1) (- (str.len (str.substr desc (+ (+ 0 (str.indexof desc "\r" 0)) 1) (- (str.len desc) (+ (+ 0 (str.indexof desc "\r" 0)) 1)))) (+ (+ 0 (str.indexof (str.substr desc (+ (+ 0 (str.indexof desc "\r" 0)) 1) (- (str.len desc) (+ (+ 0 (str.indexof desc "\r" 0)) 1))) "\r" 0)) 1))) "\r" 0)) 1))) (+ (+ 0 (str.indexof (str.substr (str.substr (str.substr desc (+ (+ 0 (str.indexof desc "\r" 0)) 1) (- (str.len desc) (+ (+ 0 (str.indexof desc "\r" 0)) 1))) (+ (+ 0 (str.indexof (str.substr desc (+ (+ 0 (str.indexof desc "\r" 0)) 1) (- (str.len desc) (+ (+ 0 (str.indexof desc "\r" 0)) 1))) "\r" 0)) 1) (- (str.len (str.substr desc (+ (+ 0 (str.indexof desc "\r" 0)) 1) (- (str.len desc) (+ (+ 0 (str.indexof desc "\r" 0)) 1)))) (+ (+ 0 (str.indexof (str.substr desc (+ (+ 0 (str.indexof desc "\r" 0)) 1) (- (str.len desc) (+ (+ 0 (str.indexof desc "\r" 0)) 1))) "\r" 0)) 1))) (+ (+ 0 (str.indexof (str.substr (str.substr desc (+ (+ 0 (str.indexof desc "\r" 0)) 1) (- (str.len desc) (+ (+ 0 (str.indexof desc "\r" 0)) 1))) (+ (+ 0 (str.indexof (str.substr desc (+ (+ 0 (str.indexof desc "\r" 0)) 1) (- (str.len desc) (+ (+ 0 (str.indexof desc "\r" 0)) 1))) "\r" 0)) 1) (- (str.len (str.substr desc (+ (+ 0 (str.indexof desc "\r" 0)) 1) (- (str.len desc) (+ (+ 0 (str.indexof desc "\r" 0)) 1)))) (+ (+ 0 (str.indexof (str.substr desc (+ (+ 0 (str.indexof desc "\r" 0)) 1) (- (str.len desc) (+ (+ 0 (str.indexof desc "\r" 0)) 1))) "\r" 0)) 1))) "\r" 0)) 1) (- (str.len (str.substr (str.substr desc (+ (+ 0 (str.indexof desc "\r" 0)) 1) (- (str.len desc) (+ (+ 0 (str.indexof desc "\r" 0)) 1))) (+ (+ 0 (str.indexof (str.substr desc (+ (+ 0 (str.indexof desc "\r" 0)) 1) (- (str.len desc) (+ (+ 0 (str.indexof desc "\r" 0)) 1))) "\r" 0)) 1) (- (str.len (str.substr desc (+ (+ 0 (str.indexof desc "\r" 0)) 1) (- (str.len desc) (+ (+ 0 (str.indexof desc "\r" 0)) 1)))) (+ (+ 0 (str.indexof (str.substr desc (+ (+ 0 (str.indexof desc "\r" 0)) 1) (- (str.len desc) (+ (+ 0 (str.indexof desc "\r" 0)) 1))) "\r" 0)) 1)))) (+ (+ 0 (str.indexof (str.substr (str.substr desc (+ (+ 0 (str.indexof desc "\r" 0)) 1) (- (str.len desc) (+ (+ 0 (str.indexof desc "\r" 0)) 1))) (+ (+ 0 (str.indexof (str.substr desc (+ (+ 0 (str.indexof desc "\r" 0)) 1) (- (str.len desc) (+ (+ 0 (str.indexof desc "\r" 0)) 1))) "\r" 0)) 1) (- (str.len (str.substr desc (+ (+ 0 (str.indexof desc "\r" 0)) 1) (- (str.len desc) (+ (+ 0 (str.indexof desc "\r" 0)) 1)))) (+ (+ 0 (str.indexof (str.substr desc (+ (+ 0 (str.indexof desc "\r" 0)) 1) (- (str.len desc) (+ (+ 0 (str.indexof desc "\r" 0)) 1))) "\r" 0)) 1))) "\r" 0)) 1))) "\r" 0)) 1) (- (str.len (str.substr (str.substr (str.substr desc (+ (+ 0 (str.indexof desc "\r" 0)) 1) (- (str.len desc) (+ (+ 0 (str.indexof desc "\r" 0)) 1))) (+ (+ 0 (str.indexof (str.substr desc (+ (+ 0 (str.indexof desc "\r" 0)) 1) (- (str.len desc) (+ (+ 0 (str.indexof desc "\r" 0)) 1))) "\r" 0)) 1) (- (str.len (str.substr desc (+ (+ 0 (str.indexof desc "\r" 0)) 1) (- (str.len desc) (+ (+ 0 (str.indexof desc "\r" 0)) 1)))) (+ (+ 0 (str.indexof (str.substr desc (+ (+ 0 (str.indexof desc "\r" 0)) 1) (- (str.len desc) (+ (+ 0 (str.indexof desc "\r" 0)) 1))) "\r" 0)) 1))) (+ (+ 0 (str.indexof (str.substr (str.substr desc (+ (+ 0 (str.indexof desc "\r" 0)) 1) (- (str.len desc) (+ (+ 0 (str.indexof desc "\r" 0)) 1))) (+ (+ 0 (str.indexof (str.substr desc (+ (+ 0 (str.indexof desc "\r" 0)) 1) (- (str.len desc) (+ (+ 0 (str.indexof desc "\r" 0)) 1))) "\r" 0)) 1) (- (str.len (str.substr desc (+ (+ 0 (str.indexof desc "\r" 0)) 1) (- (str.len desc) (+ (+ 0 (str.indexof desc "\r" 0)) 1)))) (+ (+ 0 (str.indexof (str.substr desc (+ (+ 0 (str.indexof desc "\r" 0)) 1) (- (str.len desc) (+ (+ 0 (str.indexof desc "\r" 0)) 1))) "\r" 0)) 1))) "\r" 0)) 1) (- (str.len (str.substr (str.substr desc (+ (+ 0 (str.indexof desc "\r" 0)) 1) (- (str.len desc) (+ (+ 0 (str.indexof desc "\r" 0)) 1))) (+ (+ 0 (str.indexof (str.substr desc (+ (+ 0 (str.indexof desc "\r" 0)) 1) (- (str.len desc) (+ (+ 0 (str.indexof desc "\r" 0)) 1))) "\r" 0)) 1) (- (str.len (str.substr desc (+ (+ 0 (str.indexof desc "\r" 0)) 1) (- (str.len desc) (+ (+ 0 (str.indexof desc "\r" 0)) 1)))) (+ (+ 0 (str.indexof (str.substr desc (+ (+ 0 (str.indexof desc "\r" 0)) 1) (- (str.len desc) (+ (+ 0 (str.indexof desc "\r" 0)) 1))) "\r" 0)) 1)))) (+ (+ 0 (str.indexof (str.substr (str.substr desc (+ (+ 0 (str.indexof desc "\r" 0)) 1) (- (str.len desc) (+ (+ 0 (str.indexof desc "\r" 0)) 1))) (+ (+ 0 (str.indexof (str.substr desc (+ (+ 0 (str.indexof desc "\r" 0)) 1) (- (str.len desc) (+ (+ 0 (str.indexof desc "\r" 0)) 1))) "\r" 0)) 1) (- (str.len (str.substr desc (+ (+ 0 (str.indexof desc "\r" 0)) 1) (- (str.len desc) (+ (+ 0 (str.indexof desc "\r" 0)) 1)))) (+ (+ 0 (str.indexof (str.substr desc (+ (+ 0 (str.indexof desc "\r" 0)) 1) (- (str.len desc) (+ (+ 0 (str.indexof desc "\r" 0)) 1))) "\r" 0)) 1))) "\r" 0)) 1)))) (+ (+ 0 (str.indexof (str.substr (str.substr (str.substr desc (+ (+ 0 (str.indexof desc "\r" 0)) 1) (- (str.len desc) (+ (+ 0 (str.indexof desc "\r" 0)) 1))) (+ (+ 0 (str.indexof (str.substr desc (+ (+ 0 (str.indexof desc "\r" 0)) 1) (- (str.len desc) (+ (+ 0 (str.indexof desc "\r" 0)) 1))) "\r" 0)) 1) (- (str.len (str.substr desc (+ (+ 0 (str.indexof desc "\r" 0)) 1) (- (str.len desc) (+ (+ 0 (str.indexof desc "\r" 0)) 1)))) (+ (+ 0 (str.indexof (str.substr desc (+ (+ 0 (str.indexof desc "\r" 0)) 1) (- (str.len desc) (+ (+ 0 (str.indexof desc "\r" 0)) 1))) "\r" 0)) 1))) (+ (+ 0 (str.indexof (str.substr (str.substr desc (+ (+ 0 (str.indexof desc "\r" 0)) 1) (- (str.len desc) (+ (+ 0 (str.indexof desc "\r" 0)) 1))) (+ (+ 0 (str.indexof (str.substr desc (+ (+ 0 (str.indexof desc "\r" 0)) 1) (- (str.len desc) (+ (+ 0 (str.indexof desc "\r" 0)) 1))) "\r" 0)) 1) (- (str.len (str.substr desc (+ (+ 0 (str.indexof desc "\r" 0)) 1) (- (str.len desc) (+ (+ 0 (str.indexof desc "\r" 0)) 1)))) (+ (+ 0 (str.indexof (str.substr desc (+ (+ 0 (str.indexof desc "\r" 0)) 1) (- (str.len desc) (+ (+ 0 (str.indexof desc "\r" 0)) 1))) "\r" 0)) 1))) "\r" 0)) 1) (- (str.len (str.substr (str.substr desc (+ (+ 0 (str.indexof desc "\r" 0)) 1) (- (str.len desc) (+ (+ 0 (str.indexof desc "\r" 0)) 1))) (+ (+ 0 (str.indexof (str.substr desc (+ (+ 0 (str.indexof desc "\r" 0)) 1) (- (str.len desc) (+ (+ 0 (str.indexof desc "\r" 0)) 1))) "\r" 0)) 1) (- (str.len (str.substr desc (+ (+ 0 (str.indexof desc "\r" 0)) 1) (- (str.len desc) (+ (+ 0 (str.indexof desc "\r" 0)) 1)))) (+ (+ 0 (str.indexof (str.substr desc (+ (+ 0 (str.indexof desc "\r" 0)) 1) (- (str.len desc) (+ (+ 0 (str.indexof desc "\r" 0)) 1))) "\r" 0)) 1)))) (+ (+ 0 (str.indexof (str.substr (str.substr desc (+ (+ 0 (str.indexof desc "\r" 0)) 1) (- (str.len desc) (+ (+ 0 (str.indexof desc "\r" 0)) 1))) (+ (+ 0 (str.indexof (str.substr desc (+ (+ 0 (str.indexof desc "\r" 0)) 1) (- (str.len desc) (+ (+ 0 (str.indexof desc "\r" 0)) 1))) "\r" 0)) 1) (- (str.len (str.substr desc (+ (+ 0 (str.indexof desc "\r" 0)) 1) (- (str.len desc) (+ (+ 0 (str.indexof desc "\r" 0)) 1)))) (+ (+ 0 (str.indexof (str.substr desc (+ (+ 0 (str.indexof desc "\r" 0)) 1) (- (str.len desc) (+ (+ 0 (str.indexof desc "\r" 0)) 1))) "\r" 0)) 1))) "\r" 0)) 1))) "\r" 0)) 1)))) 0)))
(assert (not (= (+ 0 (str.indexof (str.substr (str.substr (str.substr (str.substr desc (+ (+ 0 (str.indexof desc "\r" 0)) 1) (- (str.len desc) (+ (+ 0 (str.indexof desc "\r" 0)) 1))) (+ (+ 0 (str.indexof (str.substr desc (+ (+ 0 (str.indexof desc "\r" 0)) 1) (- (str.len desc) (+ (+ 0 (str.indexof desc "\r" 0)) 1))) "\r" 0)) 1) (- (str.len (str.substr desc (+ (+ 0 (str.indexof desc "\r" 0)) 1) (- (str.len desc) (+ (+ 0 (str.indexof desc "\r" 0)) 1)))) (+ (+ 0 (str.indexof (str.substr desc (+ (+ 0 (str.indexof desc "\r" 0)) 1) (- (str.len desc) (+ (+ 0 (str.indexof desc "\r" 0)) 1))) "\r" 0)) 1))) (+ (+ 0 (str.indexof (str.substr (str.substr desc (+ (+ 0 (str.indexof desc "\r" 0)) 1) (- (str.len desc) (+ (+ 0 (str.indexof desc "\r" 0)) 1))) (+ (+ 0 (str.indexof (str.substr desc (+ (+ 0 (str.indexof desc "\r" 0)) 1) (- (str.len desc) (+ (+ 0 (str.indexof desc "\r" 0)) 1))) "\r" 0)) 1) (- (str.len (str.substr desc (+ (+ 0 (str.indexof desc "\r" 0)) 1) (- (str.len desc) (+ (+ 0 (str.indexof desc "\r" 0)) 1)))) (+ (+ 0 (str.indexof (str.substr desc (+ (+ 0 (str.indexof desc "\r" 0)) 1) (- (str.len desc) (+ (+ 0 (str.indexof desc "\r" 0)) 1))) "\r" 0)) 1))) "\r" 0)) 1) (- (str.len (str.substr (str.substr desc (+ (+ 0 (str.indexof desc "\r" 0)) 1) (- (str.len desc) (+ (+ 0 (str.indexof desc "\r" 0)) 1))) (+ (+ 0 (str.indexof (str.substr desc (+ (+ 0 (str.indexof desc "\r" 0)) 1) (- (str.len desc) (+ (+ 0 (str.indexof desc "\r" 0)) 1))) "\r" 0)) 1) (- (str.len (str.substr desc (+ (+ 0 (str.indexof desc "\r" 0)) 1) (- (str.len desc) (+ (+ 0 (str.indexof desc "\r" 0)) 1)))) (+ (+ 0 (str.indexof (str.substr desc (+ (+ 0 (str.indexof desc "\r" 0)) 1) (- (str.len desc) (+ (+ 0 (str.indexof desc "\r" 0)) 1))) "\r" 0)) 1)))) (+ (+ 0 (str.indexof (str.substr (str.substr desc (+ (+ 0 (str.indexof desc "\r" 0)) 1) (- (str.len desc) (+ (+ 0 (str.indexof desc "\r" 0)) 1))) (+ (+ 0 (str.indexof (str.substr desc (+ (+ 0 (str.indexof desc "\r" 0)) 1) (- (str.len desc) (+ (+ 0 (str.indexof desc "\r" 0)) 1))) "\r" 0)) 1) (- (str.len (str.substr desc (+ (+ 0 (str.indexof desc "\r" 0)) 1) (- (str.len desc) (+ (+ 0 (str.indexof desc "\r" 0)) 1)))) (+ (+ 0 (str.indexof (str.substr desc (+ (+ 0 (str.indexof desc "\r" 0)) 1) (- (str.len desc) (+ (+ 0 (str.indexof desc "\r" 0)) 1))) "\r" 0)) 1))) "\r" 0)) 1))) (+ (+ 0 (str.indexof (str.substr (str.substr (str.substr desc (+ (+ 0 (str.indexof desc "\r" 0)) 1) (- (str.len desc) (+ (+ 0 (str.indexof desc "\r" 0)) 1))) (+ (+ 0 (str.indexof (str.substr desc (+ (+ 0 (str.indexof desc "\r" 0)) 1) (- (str.len desc) (+ (+ 0 (str.indexof desc "\r" 0)) 1))) "\r" 0)) 1) (- (str.len (str.substr desc (+ (+ 0 (str.indexof desc "\r" 0)) 1) (- (str.len desc) (+ (+ 0 (str.indexof desc "\r" 0)) 1)))) (+ (+ 0 (str.indexof (str.substr desc (+ (+ 0 (str.indexof desc "\r" 0)) 1) (- (str.len desc) (+ (+ 0 (str.indexof desc "\r" 0)) 1))) "\r" 0)) 1))) (+ (+ 0 (str.indexof (str.substr (str.substr desc (+ (+ 0 (str.indexof desc "\r" 0)) 1) (- (str.len desc) (+ (+ 0 (str.indexof desc "\r" 0)) 1))) (+ (+ 0 (str.indexof (str.substr desc (+ (+ 0 (str.indexof desc "\r" 0)) 1) (- (str.len desc) (+ (+ 0 (str.indexof desc "\r" 0)) 1))) "\r" 0)) 1) (- (str.len (str.substr desc (+ (+ 0 (str.indexof desc "\r" 0)) 1) (- (str.len desc) (+ (+ 0 (str.indexof desc "\r" 0)) 1)))) (+ (+ 0 (str.indexof (str.substr desc (+ (+ 0 (str.indexof desc "\r" 0)) 1) (- (str.len desc) (+ (+ 0 (str.indexof desc "\r" 0)) 1))) "\r" 0)) 1))) "\r" 0)) 1) (- (str.len (str.substr (str.substr desc (+ (+ 0 (str.indexof desc "\r" 0)) 1) (- (str.len desc) (+ (+ 0 (str.indexof desc "\r" 0)) 1))) (+ (+ 0 (str.indexof (str.substr desc (+ (+ 0 (str.indexof desc "\r" 0)) 1) (- (str.len desc) (+ (+ 0 (str.indexof desc "\r" 0)) 1))) "\r" 0)) 1) (- (str.len (str.substr desc (+ (+ 0 (str.indexof desc "\r" 0)) 1) (- (str.len desc) (+ (+ 0 (str.indexof desc "\r" 0)) 1)))) (+ (+ 0 (str.indexof (str.substr desc (+ (+ 0 (str.indexof desc "\r" 0)) 1) (- (str.len desc) (+ (+ 0 (str.indexof desc "\r" 0)) 1))) "\r" 0)) 1)))) (+ (+ 0 (str.indexof (str.substr (str.substr desc (+ (+ 0 (str.indexof desc "\r" 0)) 1) (- (str.len desc) (+ (+ 0 (str.indexof desc "\r" 0)) 1))) (+ (+ 0 (str.indexof (str.substr desc (+ (+ 0 (str.indexof desc "\r" 0)) 1) (- (str.len desc) (+ (+ 0 (str.indexof desc "\r" 0)) 1))) "\r" 0)) 1) (- (str.len (str.substr desc (+ (+ 0 (str.indexof desc "\r" 0)) 1) (- (str.len desc) (+ (+ 0 (str.indexof desc "\r" 0)) 1)))) (+ (+ 0 (str.indexof (str.substr desc (+ (+ 0 (str.indexof desc "\r" 0)) 1) (- (str.len desc) (+ (+ 0 (str.indexof desc "\r" 0)) 1))) "\r" 0)) 1))) "\r" 0)) 1))) "\r" 0)) 1) (- (str.len (str.substr (str.substr (str.substr desc (+ (+ 0 (str.indexof desc "\r" 0)) 1) (- (str.len desc) (+ (+ 0 (str.indexof desc "\r" 0)) 1))) (+ (+ 0 (str.indexof (str.substr desc (+ (+ 0 (str.indexof desc "\r" 0)) 1) (- (str.len desc) (+ (+ 0 (str.indexof desc "\r" 0)) 1))) "\r" 0)) 1) (- (str.len (str.substr desc (+ (+ 0 (str.indexof desc "\r" 0)) 1) (- (str.len desc) (+ (+ 0 (str.indexof desc "\r" 0)) 1)))) (+ (+ 0 (str.indexof (str.substr desc (+ (+ 0 (str.indexof desc "\r" 0)) 1) (- (str.len desc) (+ (+ 0 (str.indexof desc "\r" 0)) 1))) "\r" 0)) 1))) (+ (+ 0 (str.indexof (str.substr (str.substr desc (+ (+ 0 (str.indexof desc "\r" 0)) 1) (- (str.len desc) (+ (+ 0 (str.indexof desc "\r" 0)) 1))) (+ (+ 0 (str.indexof (str.substr desc (+ (+ 0 (str.indexof desc "\r" 0)) 1) (- (str.len desc) (+ (+ 0 (str.indexof desc "\r" 0)) 1))) "\r" 0)) 1) (- (str.len (str.substr desc (+ (+ 0 (str.indexof desc "\r" 0)) 1) (- (str.len desc) (+ (+ 0 (str.indexof desc "\r" 0)) 1)))) (+ (+ 0 (str.indexof (str.substr desc (+ (+ 0 (str.indexof desc "\r" 0)) 1) (- (str.len desc) (+ (+ 0 (str.indexof desc "\r" 0)) 1))) "\r" 0)) 1))) "\r" 0)) 1) (- (str.len (str.substr (str.substr desc (+ (+ 0 (str.indexof desc "\r" 0)) 1) (- (str.len desc) (+ (+ 0 (str.indexof desc "\r" 0)) 1))) (+ (+ 0 (str.indexof (str.substr desc (+ (+ 0 (str.indexof desc "\r" 0)) 1) (- (str.len desc) (+ (+ 0 (str.indexof desc "\r" 0)) 1))) "\r" 0)) 1) (- (str.len (str.substr desc (+ (+ 0 (str.indexof desc "\r" 0)) 1) (- (str.len desc) (+ (+ 0 (str.indexof desc "\r" 0)) 1)))) (+ (+ 0 (str.indexof (str.substr desc (+ (+ 0 (str.indexof desc "\r" 0)) 1) (- (str.len desc) (+ (+ 0 (str.indexof desc "\r" 0)) 1))) "\r" 0)) 1)))) (+ (+ 0 (str.indexof (str.substr (str.substr desc (+ (+ 0 (str.indexof desc "\r" 0)) 1) (- (str.len desc) (+ (+ 0 (str.indexof desc "\r" 0)) 1))) (+ (+ 0 (str.indexof (str.substr desc (+ (+ 0 (str.indexof desc "\r" 0)) 1) (- (str.len desc) (+ (+ 0 (str.indexof desc "\r" 0)) 1))) "\r" 0)) 1) (- (str.len (str.substr desc (+ (+ 0 (str.indexof desc "\r" 0)) 1) (- (str.len desc) (+ (+ 0 (str.indexof desc "\r" 0)) 1)))) (+ (+ 0 (str.indexof (str.substr desc (+ (+ 0 (str.indexof desc "\r" 0)) 1) (- (str.len desc) (+ (+ 0 (str.indexof desc "\r" 0)) 1))) "\r" 0)) 1))) "\r" 0)) 1)))) (+ (+ 0 (str.indexof (str.substr (str.substr (str.substr desc (+ (+ 0 (str.indexof desc "\r" 0)) 1) (- (str.len desc) (+ (+ 0 (str.indexof desc "\r" 0)) 1))) (+ (+ 0 (str.indexof (str.substr desc (+ (+ 0 (str.indexof desc "\r" 0)) 1) (- (str.len desc) (+ (+ 0 (str.indexof desc "\r" 0)) 1))) "\r" 0)) 1) (- (str.len (str.substr desc (+ (+ 0 (str.indexof desc "\r" 0)) 1) (- (str.len desc) (+ (+ 0 (str.indexof desc "\r" 0)) 1)))) (+ (+ 0 (str.indexof (str.substr desc (+ (+ 0 (str.indexof desc "\r" 0)) 1) (- (str.len desc) (+ (+ 0 (str.indexof desc "\r" 0)) 1))) "\r" 0)) 1))) (+ (+ 0 (str.indexof (str.substr (str.substr desc (+ (+ 0 (str.indexof desc "\r" 0)) 1) (- (str.len desc) (+ (+ 0 (str.indexof desc "\r" 0)) 1))) (+ (+ 0 (str.indexof (str.substr desc (+ (+ 0 (str.indexof desc "\r" 0)) 1) (- (str.len desc) (+ (+ 0 (str.indexof desc "\r" 0)) 1))) "\r" 0)) 1) (- (str.len (str.substr desc (+ (+ 0 (str.indexof desc "\r" 0)) 1) (- (str.len desc) (+ (+ 0 (str.indexof desc "\r" 0)) 1)))) (+ (+ 0 (str.indexof (str.substr desc (+ (+ 0 (str.indexof desc "\r" 0)) 1) (- (str.len desc) (+ (+ 0 (str.indexof desc "\r" 0)) 1))) "\r" 0)) 1))) "\r" 0)) 1) (- (str.len (str.substr (str.substr desc (+ (+ 0 (str.indexof desc "\r" 0)) 1) (- (str.len desc) (+ (+ 0 (str.indexof desc "\r" 0)) 1))) (+ (+ 0 (str.indexof (str.substr desc (+ (+ 0 (str.indexof desc "\r" 0)) 1) (- (str.len desc) (+ (+ 0 (str.indexof desc "\r" 0)) 1))) "\r" 0)) 1) (- (str.len (str.substr desc (+ (+ 0 (str.indexof desc "\r" 0)) 1) (- (str.len desc) (+ (+ 0 (str.indexof desc "\r" 0)) 1)))) (+ (+ 0 (str.indexof (str.substr desc (+ (+ 0 (str.indexof desc "\r" 0)) 1) (- (str.len desc) (+ (+ 0 (str.indexof desc "\r" 0)) 1))) "\r" 0)) 1)))) (+ (+ 0 (str.indexof (str.substr (str.substr desc (+ (+ 0 (str.indexof desc "\r" 0)) 1) (- (str.len desc) (+ (+ 0 (str.indexof desc "\r" 0)) 1))) (+ (+ 0 (str.indexof (str.substr desc (+ (+ 0 (str.indexof desc "\r" 0)) 1) (- (str.len desc) (+ (+ 0 (str.indexof desc "\r" 0)) 1))) "\r" 0)) 1) (- (str.len (str.substr desc (+ (+ 0 (str.indexof desc "\r" 0)) 1) (- (str.len desc) (+ (+ 0 (str.indexof desc "\r" 0)) 1)))) (+ (+ 0 (str.indexof (str.substr desc (+ (+ 0 (str.indexof desc "\r" 0)) 1) (- (str.len desc) (+ (+ 0 (str.indexof desc "\r" 0)) 1))) "\r" 0)) 1))) "\r" 0)) 1))) "\r" 0)) 1))) "\r" 0)) (- 1))))
(check-sat)
(get-value (desc))
(get-value (qualifiers))
